#n B3LYP/6-31G(d) Opt

 Title

0 1
C  
C   1 B1
C   1 B2 2 A2
H   1 B3 2 A3 3 D3
H   1 B4 2 A4 3 D4
H   2 B5 1 A5 3 D5
H   2 B6 1 A6 3 D6
Variables:
B1        2.61049
B2        1.30522
A2        0.02562
B3        1.08441
A3      119.99684
D3       90.17626
B4        1.08441
A4      119.99683
D4      269.81167
B5        1.08440
A5      119.99588
D5      269.81855
B6        1.08440
A6      119.99588
D6       90.18313

