%nosave
%nproc=8
%mem=2gb
%chk=input
#P ROCCSD(T)/aug-cc-pvtz

 Title

0 2
Cl 
Variables:

