%nosave
%nproc=8
%mem=2gb
%chk=input

#P M062X/cc-pvtz nosymm opt(noeigentest) optcyc=120 freq

 Title

0 1
C  
C   1 B1
H   1 B2 2 A2
H   1 B3 2 A3 3 D3
H   1 B4 2 A4 3 D4
C   2 B5 1 A5 3 D5
H   2 B6 1 A6 3 D6
H   2 B7 1 A7 3 D7
C   6 B8 2 A8 1 D8
C   9 B9 6 A9 2 D9
C   10 B10 9 A10 6 D10
H   10 B11 9 A11 6 D11
H   11 B12 10 A12 9 D12
H   11 B13 10 A13 9 D13
H   6 B14 2 A14 1 D14
H   9 B15 6 A15 2 D15
Variables:
B1        1.52533
B2        1.11041
A2      109.59472
B3        1.11111
A3      110.30077
D3      240.37554
B4        1.11111
A4      110.30017
D4      119.62369
B5        1.50452
A5      111.36610
D5      180.00057
B6        1.11160
A6      108.95240
D6       59.33743
B7        1.11160
A7      108.95136
D7      300.66267
B8        1.33947
A8      120.64984
D8      179.99668
B9        1.47711
A9      121.01977
D9      180.00095
B10        1.33495
A10      121.14038
D10      179.99628
B11        1.08673
A11      119.91483
D11      359.99683
B12        1.08606
A12      121.18971
D12      359.99993
B13        1.08522
A13      119.97242
D13      180.00043
B14        1.08794
A14      119.64742
D14      359.99756
B15        1.08765
A15      119.58185
D15      359.99996

--Link1-- 
%nosave
%nproc=8
%mem=2500mb
%chk=input

#P CCSD(T)/aug-cc-pvtz geom=allcheck guess=read

