%nosave
%nproc=8
%mem=2gb
%chk=input
#P CCSD(T)/aug-cc-pvtz

 Title

1 1
Na 
Variables:

